p edge 39 115
1 32
1 23
1 2
2 3
2 33
2 5
3 13
3 4
4 11
4 22
4 5
5 26
5 6
5 8
6 17
6 7
6 30
7 8
7 18
7 30
8 9
8 17
8 25
9 25
9 1
9 10
10 29
10 11
10 1
11 12
11 20
11 14
12 1
12 14
12 13
13 19
13 14
13 37
14 15
14 4
14 33
15 23
15 31
15 16
16 17
16 4
16 21
17 3
17 7
17 18
18 11
18 25
18 19
19 20
19 36
19 8
20 27
20 21
20 5
21 31
21 16
21 22
22 17
22 23
22 27
23 34
23 4
23 24
24 25
24 9
24 5
25 30
25 26
25 24
26 1
26 30
26 27
27 23
27 28
27 15
28 19
28 29
28 11
29 39
29 30
29 19
30 2
30 19
30 31
31 27
31 18
31 32
32 33
32 10
33 37
33 34
33 24
34 35
34 6
34 18
35 36
35 2
35 30
36 2
36 33
36 37
37 28
37 23
37 38
38 23
38 28
38 39
39 1
39 36
39 3
